
Gurobi 9.0.2 (win64) logging started Sun Dec 27 07:42:15 2020

Changed value of parameter logfile to result\SunCable-20201227T0415\scenario_2030_p30_cab5000.log
   Prev:   Default: 
Gurobi Optimizer version 9.0.2 build v9.0.2rc0 (win64)
Optimize a model with 1243974 rows, 762167 columns and 3491691 nonzeros
Model fingerprint: 0xedf43607
Coefficient statistics:
  Matrix range     [1e-07, 5e+05]
  Objective range  [1e+00, 1e+00]
  Bounds range     [0e+00, 0e+00]
  RHS range        [2e-05, 3e+08]
Warning: Model contains large matrix coefficient range
         Consider reformulating model or setting NumericFocus parameter
         to avoid numerical issues.

Concurrent LP optimizer: primal simplex, dual simplex, and barrier
Showing barrier log only...

Presolve removed 1068997 rows and 595935 columns
Presolve time: 2.77s
Presolved: 174977 rows, 280098 columns, 652320 nonzeros

Ordering time: 0.08s

Barrier statistics:
 Dense cols : 5
 AA' NZ     : 6.422e+05
 Factor NZ  : 3.150e+06 (roughly 200 MBytes of memory)
 Factor Ops : 7.040e+07 (less than 1 second per iteration)
 Threads    : 30

                  Objective                Residual
Iter       Primal          Dual         Primal    Dual     Compl     Time
   0  -2.63271483e+16 -1.07294060e+15  7.68e+06 2.51e+04  3.16e+12     3s
   1  -5.54971487e+15 -1.08627149e+15  1.61e+06 4.57e+06  8.74e+11     4s
   2  -1.81291717e+15 -1.02574439e+15  5.29e+05 8.03e+05  2.51e+11     4s
   3  -3.45931019e+14 -9.00135724e+14  1.02e+05 1.27e+05  4.92e+10     4s
   4  -7.84486805e+13 -5.61661477e+14  2.23e+04 3.49e+04  1.19e+10     4s
   5  -2.45460533e+13 -3.72025131e+14  7.14e+03 1.68e+04  4.50e+09     5s
   6  -7.23050961e+12 -2.90811596e+14  2.31e+03 1.07e+04  2.13e+09     5s
   7  -2.45957747e+12 -1.09048490e+14  9.25e+02 1.06e+03  5.01e+08     5s
   8   5.51263530e+11 -2.90638320e+13  2.29e+01 5.95e+01  5.98e+07     5s
   9   3.55744441e+11 -1.44024191e+12  3.83e+00 1.42e+00  3.47e+06     6s
  10   1.13705165e+11 -5.03488838e+11  7.46e-01 8.56e-02  1.13e+06     6s
  11   3.43119754e+10 -1.57444462e+11  1.42e-01 5.59e-09  3.43e+05     6s
  12   1.70744413e+10 -4.78760764e+10  5.01e-02 5.59e-09  1.16e+05     7s
  13   1.14023731e+10 -5.96778619e+09  1.45e-02 7.45e-09  3.09e+04     7s
  14   9.11637334e+09 -9.95832973e+08  5.41e-03 5.59e-09  1.79e+04     7s
  15   8.40863742e+09  2.51803526e+09  2.62e-03 5.59e-09  1.04e+04     7s
  16   8.07814841e+09  5.04201973e+09  1.30e-03 5.59e-09  5.37e+03     7s
  17   7.89675806e+09  6.37699734e+09  6.15e-04 2.79e-09  2.68e+03     8s
  18   7.83013820e+09  7.17392179e+09  3.70e-04 2.79e-09  1.16e+03     8s
  19   7.79130337e+09  7.30226770e+09  2.47e-04 2.79e-09  8.63e+02     8s
  20   7.77011376e+09  7.43164630e+09  1.80e-04 1.86e-09  5.98e+02     8s
  21   7.73867752e+09  7.56105514e+09  7.93e-05 1.86e-09  3.13e+02     9s
  22   7.72334640e+09  7.61971031e+09  3.50e-05 1.86e-09  1.83e+02     9s
  23   7.71718284e+09  7.63897709e+09  1.91e-05 1.86e-09  1.38e+02     9s
  24   7.71510898e+09  7.66091091e+09  1.36e-05 1.86e-09  9.55e+01    10s
  25   7.71329449e+09  7.66969721e+09  8.99e-06 1.86e-09  7.68e+01    10s
  26   7.71248864e+09  7.67880137e+09  7.17e-06 1.86e-09  5.93e+01    10s
  27   7.71156738e+09  7.68225456e+09  5.12e-06 2.79e-09  5.16e+01    10s
  28   7.71008257e+09  7.70105267e+09  1.78e-06 2.79e-09  1.59e+01    11s
  29   7.70923513e+09  7.70683942e+09  4.82e-07 2.79e-09  4.22e+00    11s
  30   7.70913799e+09  7.70879051e+09  1.40e-06 1.86e-09  6.12e-01    11s
  31   7.70910420e+09  7.70897077e+09  1.53e-06 2.79e-09  2.35e-01    11s
  32   7.70909576e+09  7.70905787e+09  1.22e-06 2.79e-09  6.66e-02    12s
  33   7.70909490e+09  7.70908957e+09  2.06e-09 1.86e-09  9.38e-03    12s
  34   7.70909480e+09  7.70909477e+09  1.32e-05 2.79e-09  5.39e-05    12s
  35   7.70909480e+09  7.70909477e+09  4.66e-04 1.29e-08  5.39e-05    13s

Barrier solved model in 35 iterations and 12.61 seconds
Optimal objective 7.70909480e+09

Crossover log...

   20464 DPushes remaining with DInf 0.0000000e+00                13s
       0 DPushes remaining with DInf 0.0000000e+00                15s
Warning: Markowitz tolerance tightened to 0.5

   80804 PPushes remaining with PInf 4.6889589e-03                15s
   28288 PPushes remaining with PInf 1.0004642e-02                39s
    9956 PPushes remaining with PInf 9.8318218e-03                40s
       3 PPushes remaining with PInf 0.0000000e+00                54s
       0 PPushes remaining with PInf 0.0000000e+00                54s

  Push phase complete: Pinf 0.0000000e+00, Dinf 3.5478975e+02     54s

Iteration    Objective       Primal Inf.    Dual Inf.      Time
  101051    7.7091087e+09   0.000000e+00   3.547898e+02     54s
  101264    7.7090948e+09   0.000000e+00   2.000000e-06     56s
Extra one simplex iteration after uncrush
  101265    7.7090948e+09   0.000000e+00   0.000000e+00     56s

Solved with barrier
Solved in 101265 iterations and 56.40 seconds
Optimal objective  7.709094781e+09
Warning: unscaled primal violation = 0.000873203 and residual = 0.000873203
